[[72, 81, 71, 80, 70, 69, 68, 78, 77, 79, 88, 89, 90, 99, 98, 97, 96, 87, 95, 86, 94], [93, 92, 91, 83, 82, 73, 84, 85, 76, 75, 67, 66, 74, 65, 64, 55, 56, 57], [58, 59, 49, 47, 46, 38, 39, 48, 40, 50, 41, 32, 31, 30, 29, 37, 28, 19, 20, 21, 22, 13], [12, 11, 10, 2, 3, 4, 14, 5, 15, 6, 7, 8, 9, 18, 17], [16, 25, 23, 24, 26, 27, 35, 36, 44, 34, 33, 43, 42, 45, 54, 53, 52, 51, 60, 61, 62, 63]]